NiN
   1.00000000000000
    14.8019999999999996    0.0000000000000000    0.0000000000000000
     7.4009999999999998   12.8189080000000004    0.0000000000000000
     0.0000000000000000    0.0000000000000000   35.0000000000000000
   Ni  O  N   C  H
     1   46  1     70   89
Cart
        7.58262         5.85354         7.22838
        8.82102          6.2206         9.68426
        9.26719         1.14186        10.02535
       11.66996         6.68318        12.77488
        12.0611         7.84173        10.13793
       19.07607        12.05416        14.07333
        9.38488         5.17521        12.49048
       10.00525          2.2901        12.26108
        8.99775         0.86531        14.53219
        8.43975         9.66107        11.23287
       13.72417         1.55711        13.10664
        5.58873         2.50617        13.23069
        7.88959         5.89717        15.03829
       13.30663         0.23792          9.8578
       18.12517         7.13087        15.72188
       10.71535         3.11446        16.31286
       12.73893        10.79024        15.22434
        2.29636         3.70833         9.65112
        3.61485         1.41577        10.10323
       13.76165        11.62619         11.1758
         7.9162         9.03644        14.04601
       12.46019         2.82357        10.72882
        5.62929          7.1208        13.96385
        2.64771         0.05344        12.43827
       18.43021         6.96768        10.49361
        9.43567         0.68797        17.18573
       17.41886         9.76583        14.56756
         13.403         3.07266        15.45123
        4.51526         0.60762        15.06879
        6.25905         1.44542        10.71388
       14.85217         4.33501        11.02011
       16.46006        11.18479        10.60477
         10.899         8.92832        14.15634
        7.29003         3.08991        15.51713
       14.54784         6.90031         9.54946
       16.45156         3.09409         15.7948
        6.75094        11.16446        15.53482
       16.74866         8.66909         9.45064
       20.37275        11.00833        11.67934
       16.90085         5.22244        13.91633
        14.9778        11.00066         13.4252
        1.52873         0.38822        15.15678
       14.15685          5.3318        13.41773
        11.2039         10.3821        11.53261
        4.36179         5.40792         12.4447
       19.07965         8.79021        12.42056
          6.598          5.9648         9.94116
        8.92838         7.24231         6.95709
        6.22165         7.22028         7.30007
        6.26317         4.49768         7.05388
        8.81771         4.50713         6.89097
        7.49406         6.08314         9.12298
       13.77407         0.13319         6.70525
       14.96275         0.86696         6.61601
       15.03951          2.3147         6.61131
       16.24948         3.00524         6.64746
       16.15749         4.42353         6.68711
       17.38387         5.13596         6.73784
       17.40119         6.58025         6.81497
       18.58185         7.28209         7.15503
       18.65768         8.68623         7.05037
        19.9144         9.40448         7.15535
       19.94237        10.82601         7.00112
       21.22178        11.50061         6.91028
        1.43758         0.12915         6.69807
        2.64101         0.85843         6.58524
        2.66918         2.28393         6.71322
        3.85226         2.96042         6.85633
        3.79861         4.39081         6.89968
        5.00545         5.13113         7.09398
        4.94776         6.55193         7.28706
        6.32405         8.66729         7.34894
        7.58517         9.32948         7.15137
        7.61132        10.74554         6.99147
        8.83415        11.51683            6.81
        3.90849         0.19018         6.55226
         5.1411         0.88264         6.73812
        5.11574         2.31983         6.89472
        6.34795         3.10447         6.96747
        8.83352         8.64067         6.98253
       10.05911         9.36074         6.88075
       10.05292        10.80486         6.74468
       11.29961        11.52695         6.61794
        6.40489         0.22097         6.64614
        7.59717         0.97289         6.81249
         7.6068         2.38612         6.90541
         8.8125         3.15022         6.86128
       10.09912         5.14835          6.7608
       10.13867         6.59029          6.8158
       11.35345         7.35774         6.79711
       11.31974         8.72215          6.8235
       12.58727         9.41021           6.703
       12.53479         10.8486         6.63582
       13.81137        11.61295         6.63268
        8.84663         0.21929         6.84978
       10.06481           0.944         6.84001
       10.03777         2.40069         6.78985
        11.3198         3.03984         6.81376
       11.32437         4.47142         6.84838
       12.53016         5.19692          6.6905
       12.59835         6.59925         6.75179
       13.80968         7.30764         6.63823
       13.82227         8.74431         6.59249
       15.04567         9.47684         6.56285
       15.06606        10.87339         6.67136
       16.27163        11.59924         6.76535
       11.30849         0.17676         6.76469
       12.54832         0.87653         6.70757
       12.55279         2.29287         6.77532
       13.79806         3.01765         6.76592
        13.7632         4.44665         6.76185
       14.97271         5.15443         6.59128
       14.97826         6.61492         6.59027
       16.20094         7.28354          6.5658
       16.24544         8.73782         6.57023
       17.48923         9.43051         6.79002
        17.4842        10.86338         6.86878
       18.72778        11.59543         6.90833
        9.75181         1.20021         9.21015
        9.28769         0.12734        10.23281
        9.34318         6.36892         8.83932
        4.84949         8.38003        13.07246
       18.86743         8.20919        11.67041
       16.62514         3.53454         8.85447
       11.82234         7.20017        11.93387
       12.17802         8.80225        10.04567
       13.00833         7.54717         9.80867
       17.83568        10.67389        14.40762
        8.75539         5.33473        13.28223
        9.78985         3.28094        12.16412
        9.67418         1.87921        11.41572
       12.21269        10.05784        14.89817
        9.24189         0.87433        16.23529
        8.82261         5.44534        11.71578
        8.72972         8.85909        10.87839
        9.24022         1.26967        13.67919
       13.70989          1.8323         12.1277
        5.33135         1.83723        13.90426
        6.17936         2.12355        12.51452
         7.6643         5.12223        15.57572
        7.03527         6.35185        14.85429
       21.11482        12.67874         9.08595
       20.35014        12.28009         10.3102
       18.09774         7.96655        15.27651
       19.64042        12.06566        13.29676
       10.46256          2.3334        16.88089
        9.89455          3.3577        15.88292
       12.18114        12.47056        15.28043
       13.46955        10.88096        14.59667
       16.35228         3.94131        10.23836
       10.87137         6.10293        12.55429
        5.31477         1.53304        10.37446
        3.10598         2.26922         9.98671
        14.6571        11.22585        12.52533
       12.80977        11.31066        11.26711
        7.51419         9.76048        14.57577
       20.66872         11.5792        15.56323
        14.3771         0.83216        13.06145
       11.63748         2.61083        11.25355
        7.50766         8.18725        14.25909
        5.37407         6.31846        13.42205
        3.10888         1.00751        10.84443
       19.78934         10.2245        11.72853
       17.67319         7.51361        10.12987
        4.39185         6.97634         9.85364
        5.09638         7.08358        14.77376
       17.77727          9.2633        13.79888
       17.52942         6.54423        15.15653
       13.31667         2.59912        14.57276
        12.4183         3.16382        15.80024
        3.57834         0.64077        15.48279
        3.36273          0.4484        12.89075
       13.72564        12.58718        11.01362
         6.9249         1.71631         10.1049
       14.58464          4.6912        11.87321
       14.08712         3.77466         10.7992
       16.65116        10.27135        10.04705
       15.49226        11.35322        10.45775
       11.10876         8.14355        13.66618
        9.91265         9.10261        14.17868
        6.51153         2.85374        14.99572
        7.86587          2.4085        15.20995
       14.65534         6.46343         8.66791
       14.67291         6.07096        10.11423
       15.45881         3.22169        16.00624
       16.60606         3.74285        15.11088
        7.43272        11.90814        15.39321
       11.37756         0.12941        14.24887
       16.84347         8.50916         8.47472
       15.95882         8.08805         9.68896
        6.43703        10.63827        11.70435
        3.98288         5.72334        11.58709
       16.01918         5.57663        13.58579
       17.59392         5.20035        13.24941
       15.76154        10.44575        13.40995
        8.42347         0.11115        14.19878
        1.49378         1.40235        15.17694
        1.84067         0.14238        14.25022
       13.22485         5.76117        13.36795
       14.05964         4.56555        13.97122
       10.38054        10.30268        11.04905
       11.14277        10.00108        12.43674
        4.72753         4.50858        12.45958
       12.69063         2.06768        10.06089
       10.38343        11.96971        12.29547
        8.63894         1.08437         17.5659
         8.1824         9.48513        12.20234
